(set-logic QF_UF)
(declare-fun A0 () Bool)
(declare-fun A1 () Bool)
(declare-fun A2 () Bool)
(declare-fun A3 () Bool)
(declare-fun A4 () Bool)
(declare-fun A5 () Bool)
(declare-fun A6 () Bool)
(declare-fun A7 () Bool)
(declare-fun A8 () Bool)
(declare-fun A9 () Bool)
(declare-fun A10 () Bool)
(declare-fun A11 () Bool)
(declare-fun A12 () Bool)
(declare-fun A13 () Bool)
(declare-fun A14 () Bool)
(declare-fun A15 () Bool)
(declare-fun A16 () Bool)
(declare-fun A17 () Bool)
(declare-fun A18 () Bool)
(declare-fun A19 () Bool)
(declare-fun A20 () Bool)
(declare-fun A21 () Bool)
(declare-fun A22 () Bool)
(declare-fun A23 () Bool)
(declare-fun A24 () Bool)
(assert (let ((.def_0 (not A18))) (let ((.def_1 (or A16 .def_0))) (let ((.def_2 (not .def_1))) (let ((.def_3 (not A1))) (let ((.def_4 (not A24))) (let ((.def_5 (or .def_4 .def_3))) (let ((.def_6 (not .def_5))) (let ((.def_7 (or .def_6 .def_2))) (let ((.def_8 (not .def_7))) (let ((.def_9 (and A16 A4))) (let ((.def_10 (not A15))) (let ((.def_11 (or .def_10 A6))) (let ((.def_12 (not .def_11))) (let ((.def_13 (and .def_12 .def_9))) (let ((.def_14 (or .def_13 .def_8))) (let ((.def_15 (not .def_14))) (let ((.def_16 (and A24 A11))) (let ((.def_17 (not .def_16))) (let ((.def_18 (not A11))) (let ((.def_19 (or A2 .def_18))) (let ((.def_20 (or .def_19 .def_17))) (let ((.def_21 (and A1 A8))) (let ((.def_22 (= A14 .def_0))) (let ((.def_23 (and .def_22 .def_21))) (let ((.def_24 (not .def_23))) (let ((.def_25 (or .def_24 .def_20))) (let ((.def_26 (not .def_25))) (let ((.def_27 (and .def_26 .def_15))) (let ((.def_28 (not .def_27))) (let ((.def_29 (and A22 A9))) (let ((.def_30 (and A14 A20))) (let ((.def_31 (not .def_30))) (let ((.def_32 (or .def_31 .def_29))) (let ((.def_33 (or A1 A11))) (let ((.def_34 (not .def_33))) (let ((.def_35 (and .def_1 .def_34))) (let ((.def_36 (or .def_35 .def_32))) (let ((.def_37 (not .def_36))) (let ((.def_38 (not A8))) (let ((.def_39 (or A24 .def_38))) (let ((.def_40 (and A2 A3))) (let ((.def_41 (not .def_40))) (let ((.def_42 (or .def_41 .def_39))) (let ((.def_43 (not .def_42))) (let ((.def_44 (not A12))) (let ((.def_45 (not A7))) (let ((.def_46 (or .def_45 .def_44))) (let ((.def_47 (not A2))) (let ((.def_48 (not A23))) (let ((.def_49 (or .def_48 .def_47))) (let ((.def_50 (and .def_49 .def_46))) (let ((.def_51 (not .def_50))) (let ((.def_52 (or .def_51 .def_43))) (let ((.def_53 (or .def_52 .def_37))) (let ((.def_54 (or .def_53 .def_28))) (let ((.def_55 (not .def_54))) (let ((.def_56 (not A22))) (let ((.def_57 (= .def_56 A1))) (let ((.def_58 (not A10))) (let ((.def_59 (= A7 .def_58))) (let ((.def_60 (or .def_59 .def_57))) (let ((.def_61 (not .def_60))) (let ((.def_62 (or .def_45 A11))) (let ((.def_63 (or .def_48 .def_18))) (let ((.def_64 (and .def_63 .def_62))) (let ((.def_65 (not .def_64))) (let ((.def_66 (and .def_65 .def_61))) (let ((.def_67 (not .def_66))) (let ((.def_68 (not A14))) (let ((.def_69 (and .def_48 .def_68))) (let ((.def_70 (not A19))) (let ((.def_71 (= .def_70 A4))) (let ((.def_72 (not .def_71))) (let ((.def_73 (and .def_72 .def_69))) (let ((.def_74 (not .def_73))) (let ((.def_75 (not A3))) (let ((.def_76 (and .def_3 .def_75))) (let ((.def_77 (not .def_76))) (let ((.def_78 (or A2 A17))) (let ((.def_79 (or .def_78 .def_77))) (let ((.def_80 (not .def_79))) (let ((.def_81 (or .def_80 .def_74))) (let ((.def_82 (or .def_81 .def_67))) (let ((.def_83 (not .def_82))) (let ((.def_84 (or .def_44 A7))) (let ((.def_85 (and A23 A18))) (let ((.def_86 (or .def_85 .def_84))) (let ((.def_87 (or .def_58 .def_56))) (let ((.def_88 (not .def_87))) (let ((.def_89 (or .def_88 .def_62))) (let ((.def_90 (not .def_89))) (let ((.def_91 (or .def_90 .def_86))) (let ((.def_92 (not A0))) (let ((.def_93 (or .def_92 .def_68))) (let ((.def_94 (and .def_56 A23))) (let ((.def_95 (and .def_94 .def_93))) (let ((.def_96 (= A10 A16))) (let ((.def_97 (not .def_96))) (let ((.def_98 (or A7 A16))) (let ((.def_99 (or .def_98 .def_97))) (let ((.def_100 (and .def_99 .def_95))) (let ((.def_101 (not .def_100))) (let ((.def_102 (and .def_101 .def_91))) (let ((.def_103 (not .def_102))) (let ((.def_104 (or .def_103 .def_83))) (let ((.def_105 (or .def_104 .def_55))) (let ((.def_106 (not .def_105))) (let ((.def_107 (not A13))) (let ((.def_108 (or .def_107 .def_18))) (let ((.def_109 (not .def_108))) (let ((.def_110 (and A1 A3))) (let ((.def_111 (not .def_110))) (let ((.def_112 (and .def_111 .def_109))) (let ((.def_113 (and A3 .def_45))) (let ((.def_114 (and .def_3 .def_18))) (let ((.def_115 (not .def_114))) (let ((.def_116 (and .def_115 .def_113))) (let ((.def_117 (not .def_116))) (let ((.def_118 (and .def_117 .def_112))) (let ((.def_119 (not .def_118))) (let ((.def_120 (or A12 A5))) (let ((.def_121 (not .def_120))) (let ((.def_122 (not A20))) (let ((.def_123 (or .def_0 .def_122))) (let ((.def_124 (and .def_123 .def_121))) (let ((.def_125 (not .def_124))) (let ((.def_126 (not A16))) (let ((.def_127 (and .def_18 .def_126))) (let ((.def_128 (not .def_127))) (let ((.def_129 (not A4))) (let ((.def_130 (or A18 .def_129))) (let ((.def_131 (not .def_130))) (let ((.def_132 (and .def_131 .def_128))) (let ((.def_133 (= .def_132 .def_125))) (let ((.def_134 (not .def_133))) (let ((.def_135 (and .def_134 .def_119))) (let ((.def_136 (= A16 .def_47))) (let ((.def_137 (and A10 A10))) (let ((.def_138 (and .def_137 .def_136))) (let ((.def_139 (or .def_4 A11))) (let ((.def_140 (not .def_139))) (let ((.def_141 (or A3 A15))) (let ((.def_142 (not .def_141))) (let ((.def_143 (and .def_142 .def_140))) (let ((.def_144 (not .def_143))) (let ((.def_145 (or .def_144 .def_138))) (let ((.def_146 (and .def_68 A0))) (let ((.def_147 (or .def_45 A16))) (let ((.def_148 (not .def_147))) (let ((.def_149 (and .def_148 .def_146))) (let ((.def_150 (not .def_149))) (let ((.def_151 (= A0 A4))) (let ((.def_152 (or .def_38 A22))) (let ((.def_153 (or .def_152 .def_151))) (let ((.def_154 (and .def_153 .def_150))) (let ((.def_155 (or .def_154 .def_145))) (let ((.def_156 (not .def_155))) (let ((.def_157 (or .def_156 .def_135))) (let ((.def_158 (not .def_157))) (let ((.def_159 (or .def_47 A13))) (let ((.def_160 (not .def_159))) (let ((.def_161 (and A17 A7))) (let ((.def_162 (not .def_161))) (let ((.def_163 (or .def_162 .def_160))) (let ((.def_164 (and A21 .def_70))) (let ((.def_165 (not .def_164))) (let ((.def_166 (and A24 A19))) (let ((.def_167 (not .def_166))) (let ((.def_168 (or .def_167 .def_165))) (let ((.def_169 (and .def_168 .def_163))) (let ((.def_170 (= .def_129 A23))) (let ((.def_171 (and A17 .def_122))) (let ((.def_172 (not .def_171))) (let ((.def_173 (and .def_172 .def_170))) (let ((.def_174 (or .def_45 A15))) (let ((.def_175 (and A3 A1))) (let ((.def_176 (or .def_175 .def_174))) (let ((.def_177 (= .def_176 .def_173))) (let ((.def_178 (and .def_177 .def_169))) (let ((.def_179 (not .def_178))) (let ((.def_180 (and .def_58 .def_129))) (let ((.def_181 (not .def_180))) (let ((.def_182 (and A21 .def_44))) (let ((.def_183 (not .def_182))) (let ((.def_184 (or .def_183 .def_181))) (let ((.def_185 (or A3 A0))) (let ((.def_186 (or A19 A14))) (let ((.def_187 (and .def_186 .def_185))) (let ((.def_188 (not .def_187))) (let ((.def_189 (or .def_188 .def_184))) (let ((.def_190 (and .def_70 A13))) (let ((.def_191 (or .def_70 A12))) (let ((.def_192 (or .def_191 .def_190))) (let ((.def_193 (not .def_192))) (let ((.def_194 (not A6))) (let ((.def_195 (or .def_56 .def_194))) (let ((.def_196 (= .def_47 .def_58))) (let ((.def_197 (not .def_196))) (let ((.def_198 (and .def_197 .def_195))) (let ((.def_199 (= .def_198 .def_193))) (let ((.def_200 (not .def_199))) (let ((.def_201 (and .def_200 .def_189))) (let ((.def_202 (and .def_201 .def_179))) (let ((.def_203 (and .def_202 .def_158))) (let ((.def_204 (not .def_203))) (let ((.def_205 (= .def_204 .def_106))) (let ((.def_206 (not .def_205))) (let ((.def_207 (and A23 .def_48))) (let ((.def_208 (not .def_207))) (let ((.def_209 (and A24 A16))) (let ((.def_210 (and .def_209 .def_208))) (let ((.def_211 (not .def_210))) (let ((.def_212 (or A11 .def_107))) (let ((.def_213 (not .def_212))) (let ((.def_214 (not A5))) (let ((.def_215 (and .def_214 A22))) (let ((.def_216 (not .def_215))) (let ((.def_217 (and .def_216 .def_213))) (let ((.def_218 (and .def_217 .def_211))) (let ((.def_219 (not .def_218))) (let ((.def_220 (or A5 .def_18))) (let ((.def_221 (and A1 A11))) (let ((.def_222 (not .def_221))) (let ((.def_223 (or .def_222 .def_220))) (let ((.def_224 (not .def_223))) (let ((.def_225 (and A18 A12))) (let ((.def_226 (not .def_225))) (let ((.def_227 (and A19 A20))) (let ((.def_228 (= .def_227 .def_226))) (let ((.def_229 (or .def_228 .def_224))) (let ((.def_230 (not .def_229))) (let ((.def_231 (or .def_230 .def_219))) (let ((.def_232 (not .def_231))) (let ((.def_233 (and A22 .def_0))) (let ((.def_234 (not .def_233))) (let ((.def_235 (and .def_18 A8))) (let ((.def_236 (not .def_235))) (let ((.def_237 (and .def_236 .def_234))) (let ((.def_238 (not .def_237))) (let ((.def_239 (and .def_126 .def_70))) (let ((.def_240 (and A23 A17))) (let ((.def_241 (and .def_240 .def_239))) (let ((.def_242 (not .def_241))) (let ((.def_243 (and .def_242 .def_238))) (let ((.def_244 (or A11 A15))) (let ((.def_245 (or A10 .def_122))) (let ((.def_246 (and .def_245 .def_244))) (let ((.def_247 (not .def_246))) (let ((.def_248 (and .def_47 .def_44))) (let ((.def_249 (and A18 A11))) (let ((.def_250 (not .def_249))) (let ((.def_251 (or .def_250 .def_248))) (let ((.def_252 (= .def_251 .def_247))) (let ((.def_253 (not .def_252))) (let ((.def_254 (or .def_253 .def_243))) (let ((.def_255 (not .def_254))) (let ((.def_256 (or .def_255 .def_232))) (let ((.def_257 (not .def_256))) (let ((.def_258 (and .def_92 A10))) (let ((.def_259 (or .def_0 .def_70))) (let ((.def_260 (and .def_259 .def_258))) (let ((.def_261 (not A17))) (let ((.def_262 (and A1 .def_261))) (let ((.def_263 (and .def_75 .def_18))) (let ((.def_264 (not .def_263))) (let ((.def_265 (and .def_264 .def_262))) (let ((.def_266 (and .def_265 .def_260))) (let ((.def_267 (not .def_266))) (let ((.def_268 (= A21 A9))) (let ((.def_269 (not .def_268))) (let ((.def_270 (or A10 A1))) (let ((.def_271 (not .def_270))) (let ((.def_272 (and .def_271 .def_269))) (let ((.def_273 (= A21 A16))) (let ((.def_274 (not .def_273))) (let ((.def_275 (and .def_70 .def_56))) (let ((.def_276 (or .def_275 .def_274))) (let ((.def_277 (or .def_276 .def_272))) (let ((.def_278 (not .def_277))) (let ((.def_279 (and .def_278 .def_267))) (let ((.def_280 (not .def_279))) (let ((.def_281 (or A22 .def_3))) (let ((.def_282 (not .def_281))) (let ((.def_283 (and .def_122 A8))) (let ((.def_284 (= .def_283 .def_282))) (let ((.def_285 (not A9))) (let ((.def_286 (and A23 .def_285))) (let ((.def_287 (not .def_286))) (let ((.def_288 (and .def_47 .def_0))) (let ((.def_289 (not .def_288))) (let ((.def_290 (or .def_289 .def_287))) (let ((.def_291 (not .def_290))) (let ((.def_292 (or .def_291 .def_284))) (let ((.def_293 (not .def_292))) (let ((.def_294 (or A3 .def_48))) (let ((.def_295 (and A20 A23))) (let ((.def_296 (or .def_295 .def_294))) (let ((.def_297 (and .def_10 A14))) (let ((.def_298 (= A7 A10))) (let ((.def_299 (or .def_298 .def_297))) (let ((.def_300 (not .def_299))) (let ((.def_301 (and .def_300 .def_296))) (let ((.def_302 (not .def_301))) (let ((.def_303 (= .def_302 .def_293))) (let ((.def_304 (not .def_303))) (let ((.def_305 (or .def_304 .def_280))) (let ((.def_306 (or .def_305 .def_257))) (let ((.def_307 (not .def_306))) (let ((.def_308 (= A3 .def_194))) (let ((.def_309 (or A6 .def_45))) (let ((.def_310 (and .def_309 .def_308))) (let ((.def_311 (= A4 .def_38))) (let ((.def_312 (or A4 .def_285))) (let ((.def_313 (not .def_312))) (let ((.def_314 (= .def_313 .def_311))) (let ((.def_315 (not .def_314))) (let ((.def_316 (or .def_315 .def_310))) (let ((.def_317 (not .def_316))) (let ((.def_318 (or A9 A12))) (let ((.def_319 (not .def_318))) (let ((.def_320 (and .def_38 .def_122))) (let ((.def_321 (not .def_320))) (let ((.def_322 (and .def_321 .def_319))) (let ((.def_323 (not .def_322))) (let ((.def_324 (and A1 A22))) (let ((.def_325 (or A0 A16))) (let ((.def_326 (not .def_325))) (let ((.def_327 (and .def_326 .def_324))) (let ((.def_328 (or .def_327 .def_323))) (let ((.def_329 (and .def_328 .def_317))) (let ((.def_330 (not .def_329))) (let ((.def_331 (and .def_18 A10))) (let ((.def_332 (not .def_331))) (let ((.def_333 (and .def_75 .def_45))) (let ((.def_334 (= .def_333 .def_332))) (let ((.def_335 (not .def_334))) (let ((.def_336 (or .def_58 A12))) (let ((.def_337 (not .def_336))) (let ((.def_338 (or .def_261 A12))) (let ((.def_339 (and .def_338 .def_337))) (let ((.def_340 (and .def_339 .def_335))) (let ((.def_341 (or A4 .def_68))) (let ((.def_342 (not .def_341))) (let ((.def_343 (and A24 .def_47))) (let ((.def_344 (not .def_343))) (let ((.def_345 (= .def_344 .def_342))) (let ((.def_346 (not A21))) (let ((.def_347 (or .def_346 .def_122))) (let ((.def_348 (or .def_4 A5))) (let ((.def_349 (not .def_348))) (let ((.def_350 (or .def_349 .def_347))) (let ((.def_351 (or .def_350 .def_345))) (let ((.def_352 (not .def_351))) (let ((.def_353 (= .def_352 .def_340))) (let ((.def_354 (or .def_353 .def_330))) (let ((.def_355 (and .def_122 A4))) (let ((.def_356 (= .def_194 A4))) (let ((.def_357 (not .def_356))) (let ((.def_358 (and .def_357 .def_355))) (let ((.def_359 (and A23 .def_38))) (let ((.def_360 (not .def_359))) (let ((.def_361 (and A0 A21))) (let ((.def_362 (not .def_361))) (let ((.def_363 (and .def_362 .def_360))) (let ((.def_364 (not .def_363))) (let ((.def_365 (and .def_364 .def_358))) (let ((.def_366 (or A9 A5))) (let ((.def_367 (= A16 A11))) (let ((.def_368 (not .def_367))) (let ((.def_369 (or .def_368 .def_366))) (let ((.def_370 (not .def_369))) (let ((.def_371 (and .def_107 .def_10))) (let ((.def_372 (and .def_48 .def_75))) (let ((.def_373 (not .def_372))) (let ((.def_374 (and .def_373 .def_371))) (let ((.def_375 (not .def_374))) (let ((.def_376 (and .def_375 .def_370))) (let ((.def_377 (not .def_376))) (let ((.def_378 (or .def_377 .def_365))) (let ((.def_379 (not .def_378))) (let ((.def_380 (and .def_346 A18))) (let ((.def_381 (not .def_380))) (let ((.def_382 (= A0 .def_3))) (let ((.def_383 (or .def_382 .def_381))) (let ((.def_384 (= .def_126 .def_126))) (let ((.def_385 (not .def_384))) (let ((.def_386 (and A5 .def_126))) (let ((.def_387 (or .def_386 .def_385))) (let ((.def_388 (not .def_387))) (let ((.def_389 (and .def_388 .def_383))) (let ((.def_390 (or A2 A4))) (let ((.def_391 (not .def_390))) (let ((.def_392 (and .def_194 A10))) (let ((.def_393 (and .def_392 .def_391))) (let ((.def_394 (not .def_393))) (let ((.def_395 (and A11 A15))) (let ((.def_396 (or A1 A21))) (let ((.def_397 (and .def_396 .def_395))) (let ((.def_398 (not .def_397))) (let ((.def_399 (or .def_398 .def_394))) (let ((.def_400 (not .def_399))) (let ((.def_401 (or .def_400 .def_389))) (let ((.def_402 (= .def_401 .def_379))) (let ((.def_403 (not .def_402))) (let ((.def_404 (and .def_403 .def_354))) (let ((.def_405 (or .def_404 .def_307))) (let ((.def_406 (not .def_405))) (let ((.def_407 (and .def_406 .def_206))) .def_407)))))))))))))))))))))))))))))))))))))))))))))))))))))))))))))))))))))))))))))))))))))))))))))))))))))))))))))))))))))))))))))))))))))))))))))))))))))))))))))))))))))))))))))))))))))))))))))))))))))))))))))))))))))))))))))))))))))))))))))))))))))))))))))))))))))))))))))))))))))))))))))))))))))))))))))))))))))))))))))))))))))))))))))))))))))))))))))))))))))))))))))))))))))))))))))))))))))))))))))))))))))))))
(check-sat)
